NAME : 6.73958.tour
COMMENT : Length = 73958
COMMENT : Found by LKH-3 [Keld Helsgaun] Thu Jun 19 18:16:06 2025
TYPE : TOUR
DIMENSION : 100
TOUR_SECTION
1
18
21
10
91
76
89
6
64
86
61
38
49
34
67
29
51
45
77
57
22
88
26
63
84
59
97
55
54
74
66
98
20
92
25
79
47
24
7
87
48
23
46
30
36
42
35
90
44
78
27
99
58
16
13
41
19
95
82
81
94
70
83
17
15
28
8
32
3
85
39
52
37
69
100
4
33
40
60
65
68
2
72
80
73
43
56
9
11
31
14
5
75
93
53
71
62
12
50
96
-1
EOF
